p cnf 47 13
-11 17 2 29 -3 0
-27 2 4 -13 -36 0
42 19 13 -36 -35 0
-43 -11 46 -47 -2 0
19 2 -1 -46 27 0
-19 -4 31 -30 2 0
-13 -19 21 -3 -31 0
-6 18 2 -12 -38 0
2 45 42 29 -17 0
-25 -46 10 -3 -9 0
-6 -10 14 18 1 0
-27 32 -4 14 -2 0
35 4 -1 6 -45 0
